p tw 82 100
1 2
2 13
3 4
4 5
5 6
6 7
7 8
8 9
8 15
9 10
10 11
11 12
12 14
13 24
14 20
15 16
16 17
17 18
18 19
19 20
20 21
21 22
22 23
22 65
23 25
24 35
24 79
25 26
25 29
26 27
27 28
27 29
28 29
29 30
30 31
31 32
31 53
32 33
32 34
33 34
34 36
35 46
36 37
37 38
37 39
38 39
39 40
40 41
41 42
41 43
42 43
43 44
44 45
45 47
45 48
46 57
46 79
47 48
48 49
49 50
50 51
50 65
51 52
52 65
53 54
54 55
54 56
55 56
56 58
57 68
58 59
59 60
59 61
60 61
61 62
62 63
63 64
63 65
64 65
65 66
66 67
66 74
67 69
68 80
69 70
69 74
70 71
71 72
71 74
72 73
73 74
74 75
75 76
75 80
76 77
77 78
78 80
79 82
80 81
82 3
